words_hard_train/4016.qaiger
aag 37 10 0 1 27
2
4
8
12
16
20
22
32
38
66
75
6 3 4
10 3 9
14 10 13
18 15 16
24 20 22
26 19 25
28 7 26
30 21 23
34 31 32
36 28 34
40 38 17
42 40 8
44 12 4
46 42 44
48 39 16
50 47 49
52 36 51
54 46 2
56 26 35
58 55 57
60 48 5
62 61 56
64 59 63
68 64 67
70 53 69
72 65 66
74 70 73
i0 2 y1[2]
i1 2 y1[6]
i2 2 y1[3]
i3 2 y1[4]
i4 1 x2[7]
i5 2 y1[1]
i6 1 x2[6]
i7 2 y1[0]
i8 2 y1[5]
i9 2 y1[7]
o0 bv[0]
c
simplified
  >
    1
    add
      2 y1
      or
        >> 5
          1 x2
        1
