words_hard_train/4016.qaiger.qdimacs
p cnf 37 82
a 8 11 0
e 1 2 3 4 5 6 7 9 10 12 13 14 15 16 17 18 19 20 21 22 23 24 25 26 27 28 29 30 31 32 33 34 35 36 37 0
1 -2 3 0
-1 -3 0
2 -3 0
1 4 5 0
-1 -5 0
-4 -5 0
-5 6 7 0
5 -7 0
-6 -7 0
7 -8 9 0
-7 -9 0
8 -9 0
-10 -11 12 0
10 -12 0
11 -12 0
9 12 13 0
-9 -13 0
-12 -13 0
3 -13 14 0
-3 -14 0
13 -14 0
10 11 15 0
-10 -15 0
-11 -15 0
15 -16 17 0
-15 -17 0
16 -17 0
-14 -17 18 0
14 -18 0
17 -18 0
-19 8 20 0
19 -20 0
-8 -20 0
-20 -4 21 0
20 -21 0
4 -21 0
-6 -2 22 0
6 -22 0
2 -22 0
-21 -22 23 0
21 -23 0
22 -23 0
19 -8 24 0
-19 -24 0
8 -24 0
23 24 25 0
-23 -25 0
-24 -25 0
-18 25 26 0
18 -26 0
-25 -26 0
-23 -1 27 0
23 -27 0
1 -27 0
-13 17 28 0
13 -28 0
-17 -28 0
27 28 29 0
-27 -29 0
-28 -29 0
-24 2 30 0
24 -30 0
-2 -30 0
30 -28 31 0
-30 -31 0
28 -31 0
29 31 32 0
-29 -32 0
-31 -32 0
-32 33 34 0
32 -34 0
-33 -34 0
26 34 35 0
-26 -35 0
-34 -35 0
32 -33 36 0
-32 -36 0
33 -36 0
-35 36 37 0
35 -37 0
-36 -37 0
-37 0
